p cnf 1259
-17 -395
-18 -398
-19 -401
-20 -404
-21 -407
-22 -410
-23 -413
-24 -416
-25 -419
-26 -422
-27 -425
-28 -428
-29 -431
-30 -434
-31 -437
-32 -440
-33 441
-34 442
-35 443
-36 444
-37 445
-38 446
-39 447
-40 448
-41 449
-42 450
-43 451
-44 452
-45 -18
-45 -19
18 19 45
-46 -20
-46 -21
20 21 46
-47 -22
-47 -23
22 23 47
-48 -24
-48 -25
24 25 48
-49 -26
-49 -27
26 27 49
-50 -28
-50 -29
28 29 50
-51 -30
-51 -31
30 31 51
-52 -32
-52 -33
32 33 52
-53 -34
-53 -35
34 35 53
-54 -36
-54 -37
36 37 54
-55 -38
-55 -39
38 39 55
-56 -40
-56 -41
40 41 56
-57 -42
-57 -43
42 43 57
-58 45
-58 46
-45 -46 58
-59 47
-59 48
-47 -48 59
-60 49
-60 50
-49 -50 60
-61 51
-61 52
-51 -52 61
-62 53
-62 54
-53 -54 62
-63 55
-63 56
-55 -56 63
-64 -44
-64 57
44 -57 64
-65 58
-65 59
-58 -59 65
-66 60
-66 61
-60 -61 66
-67 62
-67 63
-62 -63 67
-68 65
-68 66
-65 -66 68
-69 64
-69 67
-64 -67 69
-70 68
-70 69
-68 -69 70
-71 -17
-71 18
17 -18 71
-72 17
-72 -18
-17 18 72
-73 -71
-73 -72
71 72 73
-74 17
-74 18
-17 -18 74
-75 -17
-75 -73
17 73 75
-76 17
-76 73
-17 -73 76
-77 -75
-77 -76
75 76 77
-78 17
-78 -73
-17 73 78
-79 -74
-79 -78
74 78 79
-80 -18
-80 19
18 -19 80
-81 18
-81 -19
-18 19 81
-82 -80
-82 -81
80 81 82
-83 18
-83 19
-18 -19 83
-84 79
-84 -82
-79 82 84
-85 -79
-85 82
79 -82 85
-86 -84
-86 -85
84 85 86
-87 -79
-87 -82
79 82 87
-88 -83
-88 -87
83 87 88
-89 -19
-89 20
19 -20 89
-90 19
-90 -20
-19 20 90
-91 -89
-91 -90
89 90 91
-92 19
-92 20
-19 -20 92
-93 88
-93 -91
-88 91 93
-94 -88
-94 91
88 -91 94
-95 -93
-95 -94
93 94 95
-96 -88
-96 -91
88 91 96
-97 -92
-97 -96
92 96 97
-98 -20
-98 21
20 -21 98
-99 20
-99 -21
-20 21 99
-100 -98
-100 -99
98 99 100
-101 20
-101 21
-20 -21 101
-102 97
-102 -100
-97 100 102
-103 -97
-103 100
97 -100 103
-104 -102
-104 -103
102 103 104
-105 -97
-105 -100
97 100 105
-106 -101
-106 -105
101 105 106
-107 -21
-107 22
21 -22 107
-108 21
-108 -22
-21 22 108
-109 -107
-109 -108
107 108 109
-110 21
-110 22
-21 -22 110
-111 106
-111 -109
-106 109 111
-112 -106
-112 109
106 -109 112
-113 -111
-113 -112
111 112 113
-114 -106
-114 -109
106 109 114
-115 -110
-115 -114
110 114 115
-116 -22
-116 23
22 -23 116
-117 22
-117 -23
-22 23 117
-118 -116
-118 -117
116 117 118
-119 22
-119 23
-22 -23 119
-120 115
-120 -118
-115 118 120
-121 -115
-121 118
115 -118 121
-122 -120
-122 -121
120 121 122
-123 -115
-123 -118
115 118 123
-124 -119
-124 -123
119 123 124
-125 -23
-125 24
23 -24 125
-126 23
-126 -24
-23 24 126
-127 -125
-127 -126
125 126 127
-128 23
-128 24
-23 -24 128
-129 124
-129 -127
-124 127 129
-130 -124
-130 127
124 -127 130
-131 -129
-131 -130
129 130 131
-132 -124
-132 -127
124 127 132
-133 -128
-133 -132
128 132 133
-134 -24
-134 25
24 -25 134
-135 24
-135 -25
-24 25 135
-136 -134
-136 -135
134 135 136
-137 24
-137 25
-24 -25 137
-138 133
-138 -136
-133 136 138
-139 -133
-139 136
133 -136 139
-140 -138
-140 -139
138 139 140
-141 -133
-141 -136
133 136 141
-142 -137
-142 -141
137 141 142
-143 -25
-143 26
25 -26 143
-144 25
-144 -26
-25 26 144
-145 -143
-145 -144
143 144 145
-146 25
-146 26
-25 -26 146
-147 142
-147 -145
-142 145 147
-148 -142
-148 145
142 -145 148
-149 -147
-149 -148
147 148 149
-150 -142
-150 -145
142 145 150
-151 -146
-151 -150
146 150 151
-152 -26
-152 27
26 -27 152
-153 26
-153 -27
-26 27 153
-154 -152
-154 -153
152 153 154
-155 26
-155 27
-26 -27 155
-156 151
-156 -154
-151 154 156
-157 -151
-157 154
151 -154 157
-158 -156
-158 -157
156 157 158
-159 -151
-159 -154
151 154 159
-160 -155
-160 -159
155 159 160
-161 -27
-161 28
27 -28 161
-162 27
-162 -28
-27 28 162
-163 -161
-163 -162
161 162 163
-164 27
-164 28
-27 -28 164
-165 160
-165 -163
-160 163 165
-166 -160
-166 163
160 -163 166
-167 -165
-167 -166
165 166 167
-168 -160
-168 -163
160 163 168
-169 -164
-169 -168
164 168 169
-170 -28
-170 29
28 -29 170
-171 28
-171 -29
-28 29 171
-172 -170
-172 -171
170 171 172
-173 28
-173 29
-28 -29 173
-174 169
-174 -172
-169 172 174
-175 -169
-175 172
169 -172 175
-176 -174
-176 -175
174 175 176
-177 -169
-177 -172
169 172 177
-178 -173
-178 -177
173 177 178
-179 -29
-179 30
29 -30 179
-180 29
-180 -30
-29 30 180
-181 -179
-181 -180
179 180 181
-182 29
-182 30
-29 -30 182
-183 178
-183 -181
-178 181 183
-184 -178
-184 181
178 -181 184
-185 -183
-185 -184
183 184 185
-186 -178
-186 -181
178 181 186
-187 -182
-187 -186
182 186 187
-188 -30
-188 31
30 -31 188
-189 30
-189 -31
-30 31 189
-190 -188
-190 -189
188 189 190
-191 30
-191 31
-30 -31 191
-192 187
-192 -190
-187 190 192
-193 -187
-193 190
187 -190 193
-194 -192
-194 -193
192 193 194
-195 -187
-195 -190
187 190 195
-196 -191
-196 -195
191 195 196
-197 -31
-197 32
31 -32 197
-198 31
-198 -32
-31 32 198
-199 -197
-199 -198
197 198 199
-200 31
-200 32
-31 -32 200
-201 196
-201 -199
-196 199 201
-202 -196
-202 199
196 -199 202
-203 -201
-203 -202
201 202 203
-204 -196
-204 -199
196 199 204
-205 -200
-205 -204
200 204 205
-206 -32
-206 33
32 -33 206
-207 32
-207 -33
-32 33 207
-208 -206
-208 -207
206 207 208
-209 32
-209 33
-32 -33 209
-210 205
-210 -208
-205 208 210
-211 -205
-211 208
205 -208 211
-212 -210
-212 -211
210 211 212
-213 -205
-213 -208
205 208 213
-214 -209
-214 -213
209 213 214
-215 -33
-215 34
33 -34 215
-216 33
-216 -34
-33 34 216
-217 -215
-217 -216
215 216 217
-218 33
-218 34
-33 -34 218
-219 214
-219 -217
-214 217 219
-220 -214
-220 217
214 -217 220
-221 -219
-221 -220
219 220 221
-222 -214
-222 -217
214 217 222
-223 -218
-223 -222
218 222 223
-224 -34
-224 35
34 -35 224
-225 34
-225 -35
-34 35 225
-226 -224
-226 -225
224 225 226
-227 34
-227 35
-34 -35 227
-228 223
-228 -226
-223 226 228
-229 -223
-229 226
223 -226 229
-230 -228
-230 -229
228 229 230
-231 -223
-231 -226
223 226 231
-232 -227
-232 -231
227 231 232
-233 -35
-233 36
35 -36 233
-234 35
-234 -36
-35 36 234
-235 -233
-235 -234
233 234 235
-236 35
-236 36
-35 -36 236
-237 232
-237 -235
-232 235 237
-238 -232
-238 235
232 -235 238
-239 -237
-239 -238
237 238 239
-240 -232
-240 -235
232 235 240
-241 -236
-241 -240
236 240 241
-242 -36
-242 37
36 -37 242
-243 36
-243 -37
-36 37 243
-244 -242
-244 -243
242 243 244
-245 36
-245 37
-36 -37 245
-246 241
-246 -244
-241 244 246
-247 -241
-247 244
241 -244 247
-248 -246
-248 -247
246 247 248
-249 -241
-249 -244
241 244 249
-250 -245
-250 -249
245 249 250
-251 -37
-251 38
37 -38 251
-252 37
-252 -38
-37 38 252
-253 -251
-253 -252
251 252 253
-254 37
-254 38
-37 -38 254
-255 250
-255 -253
-250 253 255
-256 -250
-256 253
250 -253 256
-257 -255
-257 -256
255 256 257
-258 -250
-258 -253
250 253 258
-259 -254
-259 -258
254 258 259
-260 -38
-260 39
38 -39 260
-261 38
-261 -39
-38 39 261
-262 -260
-262 -261
260 261 262
-263 38
-263 39
-38 -39 263
-264 259
-264 -262
-259 262 264
-265 -259
-265 262
259 -262 265
-266 -264
-266 -265
264 265 266
-267 -259
-267 -262
259 262 267
-268 -263
-268 -267
263 267 268
-269 -39
-269 40
39 -40 269
-270 39
-270 -40
-39 40 270
-271 -269
-271 -270
269 270 271
-272 39
-272 40
-39 -40 272
-273 268
-273 -271
-268 271 273
-274 -268
-274 271
268 -271 274
-275 -273
-275 -274
273 274 275
-276 -268
-276 -271
268 271 276
-277 -272
-277 -276
272 276 277
-278 -40
-278 41
40 -41 278
-279 40
-279 -41
-40 41 279
-280 -278
-280 -279
278 279 280
-281 40
-281 41
-40 -41 281
-282 277
-282 -280
-277 280 282
-283 -277
-283 280
277 -280 283
-284 -282
-284 -283
282 283 284
-285 -277
-285 -280
277 280 285
-286 -281
-286 -285
281 285 286
-287 -41
-287 42
41 -42 287
-288 41
-288 -42
-41 42 288
-289 -287
-289 -288
287 288 289
-290 41
-290 42
-41 -42 290
-291 286
-291 -289
-286 289 291
-292 -286
-292 289
286 -289 292
-293 -291
-293 -292
291 292 293
-294 -286
-294 -289
286 289 294
-295 -290
-295 -294
290 294 295
-296 -42
-296 43
42 -43 296
-297 42
-297 -43
-42 43 297
-298 -296
-298 -297
296 297 298
-299 42
-299 43
-42 -43 299
-300 295
-300 -298
-295 298 300
-301 -295
-301 298
295 -298 301
-302 -300
-302 -301
300 301 302
-303 -295
-303 -298
295 298 303
-304 -299
-304 -303
299 303 304
-305 -43
-305 44
43 -44 305
-306 43
-306 -44
-43 44 306
-307 -305
-307 -306
305 306 307
-308 43
-308 44
-43 -44 308
-309 304
-309 -307
-304 307 309
-310 -304
-310 307
304 -307 310
-311 -309
-311 -310
309 310 311
-312 -304
-312 -307
304 307 312
-313 -308
-313 -312
308 312 313
-314 17
-314 -77
-17 77 314
-315 -17
-315 19
17 -19 315
-316 -314
-316 -315
314 315 316
-317 17
-317 -86
-17 86 317
-318 -17
-318 20
17 -20 318
-319 -317
-319 -318
317 318 319
-320 17
-320 -95
-17 95 320
-321 -17
-321 21
17 -21 321
-322 -320
-322 -321
320 321 322
-323 17
-323 -104
-17 104 323
-324 -17
-324 22
17 -22 324
-325 -323
-325 -324
323 324 325
-326 17
-326 -113
-17 113 326
-327 -17
-327 23
17 -23 327
-328 -326
-328 -327
326 327 328
-329 17
-329 -122
-17 122 329
-330 -17
-330 24
17 -24 330
-331 -329
-331 -330
329 330 331
-332 17
-332 -131
-17 131 332
-333 -17
-333 25
17 -25 333
-334 -332
-334 -333
332 333 334
-335 17
-335 -140
-17 140 335
-336 -17
-336 26
17 -26 336
-337 -335
-337 -336
335 336 337
-338 17
-338 -149
-17 149 338
-339 -17
-339 27
17 -27 339
-340 -338
-340 -339
338 339 340
-341 17
-341 -158
-17 158 341
-342 -17
-342 28
17 -28 342
-343 -341
-343 -342
341 342 343
-344 17
-344 -167
-17 167 344
-345 -17
-345 29
17 -29 345
-346 -344
-346 -345
344 345 346
-347 17
-347 -176
-17 176 347
-348 -17
-348 30
17 -30 348
-349 -347
-349 -348
347 348 349
-350 17
-350 -185
-17 185 350
-351 -17
-351 31
17 -31 351
-352 -350
-352 -351
350 351 352
-353 17
-353 -194
-17 194 353
-354 -17
-354 32
17 -32 354
-355 -353
-355 -354
353 354 355
-356 17
-356 -203
-17 203 356
-357 -17
-357 33
17 -33 357
-358 -356
-358 -357
356 357 358
-359 17
-359 -212
-17 212 359
-360 -17
-360 34
17 -34 360
-361 -359
-361 -360
359 360 361
-362 17
-362 -221
-17 221 362
-363 -17
-363 35
17 -35 363
-364 -362
-364 -363
362 363 364
-365 17
-365 -230
-17 230 365
-366 -17
-366 36
17 -36 366
-367 -365
-367 -366
365 366 367
-368 17
-368 -239
-17 239 368
-369 -17
-369 37
17 -37 369
-370 -368
-370 -369
368 369 370
-371 17
-371 -248
-17 248 371
-372 -17
-372 38
17 -38 372
-373 -371
-373 -372
371 372 373
-374 17
-374 -257
-17 257 374
-375 -17
-375 39
17 -39 375
-376 -374
-376 -375
374 375 376
-377 17
-377 -266
-17 266 377
-378 -17
-378 40
17 -40 378
-379 -377
-379 -378
377 378 379
-380 17
-380 -275
-17 275 380
-381 -17
-381 41
17 -41 381
-382 -380
-382 -381
380 381 382
-383 17
-383 -284
-17 284 383
-384 -17
-384 42
17 -42 384
-385 -383
-385 -384
383 384 385
-386 17
-386 -293
-17 293 386
-387 -17
-387 43
17 -43 387
-388 -386
-388 -387
386 387 388
-389 17
-389 -302
-17 302 389
-390 -17
-390 44
17 -44 390
-391 -389
-391 -390
389 390 391
-392 17
-392 -311
-17 311 392
-393 1
-393 70
-1 -70 393
-394 -70
-394 71
70 -71 394
-395 -393
-395 -394
393 394 395
-396 2
-396 70
-2 -70 396
-397 -70
-397 -316
70 316 397
-398 -396
-398 -397
396 397 398
-399 3
-399 70
-3 -70 399
-400 -70
-400 -319
70 319 400
-401 -399
-401 -400
399 400 401
-402 4
-402 70
-4 -70 402
-403 -70
-403 -322
70 322 403
-404 -402
-404 -403
402 403 404
-405 5
-405 70
-5 -70 405
-406 -70
-406 -325
70 325 406
-407 -405
-407 -406
405 406 407
-408 6
-408 70
-6 -70 408
-409 -70
-409 -328
70 328 409
-410 -408
-410 -409
408 409 410
-411 7
-411 70
-7 -70 411
-412 -70
-412 -331
70 331 412
-413 -411
-413 -412
411 412 413
-414 8
-414 70
-8 -70 414
-415 -70
-415 -334
70 334 415
-416 -414
-416 -415
414 415 416
-417 9
-417 70
-9 -70 417
-418 -70
-418 -337
70 337 418
-419 -417
-419 -418
417 418 419
-420 10
-420 70
-10 -70 420
-421 -70
-421 -340
70 340 421
-422 -420
-422 -421
420 421 422
-423 11
-423 70
-11 -70 423
-424 -70
-424 -343
70 343 424
-425 -423
-425 -424
423 424 425
-426 12
-426 70
-12 -70 426
-427 -70
-427 -346
70 346 427
-428 -426
-428 -427
426 427 428
-429 13
-429 70
-13 -70 429
-430 -70
-430 -349
70 349 430
-431 -429
-431 -430
429 430 431
-432 14
-432 70
-14 -70 432
-433 -70
-433 -352
70 352 433
-434 -432
-434 -433
432 433 434
-435 15
-435 70
-15 -70 435
-436 -70
-436 -355
70 355 436
-437 -435
-437 -436
435 436 437
-438 16
-438 70
-16 -70 438
-439 -70
-439 -358
70 358 439
-440 -438
-440 -439
438 439 440
-441 -70
-441 -361
70 361 441
-442 -70
-442 -364
70 364 442
-443 -70
-443 -367
70 367 443
-444 -70
-444 -370
70 370 444
-445 -70
-445 -373
70 373 445
-446 -70
-446 -376
70 376 446
-447 -70
-447 -379
70 379 447
-448 -70
-448 -382
70 382 448
-449 -70
-449 -385
70 385 449
-450 -70
-450 -388
70 388 450
-451 -70
-451 -391
70 391 451
-452 -70
-452 392
70 -392 452
-453 -44
-453 313
44 -313 453
-454 17
-454 -453
-17 453 454
454
